c 0.010164499282836914 (encode time in sec)
p cnf 67 1048
1 2 3 4 0
1 2 -3 5 0
1 -2 3 4 0
1 -2 -3 5 0
-1 2 3 5 0
-1 2 -3 4 0
-1 -2 3 5 0
-1 -2 -3 4 0
6 7 8 9 0
6 7 -8 10 0
6 -7 8 9 0
6 -7 -8 10 0
-6 7 8 10 0
-6 7 -8 9 0
-6 -7 8 10 0
-6 -7 -8 9 0
11 12 13 14 0
11 12 -13 15 0
11 -12 13 14 0
11 -12 -13 15 0
-11 12 13 15 0
-11 12 -13 14 0
-11 -12 13 15 0
-11 -12 -13 14 0
16 17 18 1 2 3 6 7 8 20 0
16 17 18 1 2 3 6 7 -8 19 0
16 17 18 1 2 3 6 -7 8 20 0
16 17 18 1 2 3 6 -7 -8 22 0
16 17 18 1 2 3 -6 7 8 19 0
16 17 18 1 2 3 -6 7 -8 19 0
16 17 18 1 2 3 -6 -7 8 0
16 17 18 1 2 3 -6 -7 -8 0
16 17 18 1 2 -3 6 7 8 20 0
16 17 18 1 2 -3 6 7 -8 0
16 17 18 1 2 -3 6 -7 8 0
16 17 18 1 2 -3 6 -7 -8 0
16 17 18 1 2 -3 -6 7 8 0
16 17 18 1 2 -3 -6 7 -8 19 0
16 17 18 1 2 -3 -6 -7 8 0
16 17 18 1 2 -3 -6 -7 -8 0
16 17 18 1 -2 3 6 7 8 20 0
16 17 18 1 -2 3 6 7 -8 0
16 17 18 1 -2 3 6 -7 8 0
16 17 18 1 -2 3 6 -7 -8 0
16 17 18 1 -2 3 -6 7 8 0
16 17 18 1 -2 3 -6 7 -8 0
16 17 18 1 -2 3 -6 -7 8 0
16 17 18 1 -2 3 -6 -7 -8 19 0
16 17 18 1 -2 -3 6 7 8 20 0
16 17 18 1 -2 -3 6 7 -8 19 0
16 17 18 1 -2 -3 6 -7 8 0
16 17 18 1 -2 -3 6 -7 -8 0
16 17 18 1 -2 -3 -6 7 8 0
16 17 18 1 -2 -3 -6 7 -8 0
16 17 18 1 -2 -3 -6 -7 8 0
16 17 18 1 -2 -3 -6 -7 -8 0
16 17 18 -1 2 3 6 7 8 20 0
16 17 18 -1 2 3 6 7 -8 0
16 17 18 -1 2 3 6 -7 8 0
16 17 18 -1 2 3 6 -7 -8 0
16 17 18 -1 2 3 -6 7 8 0
16 17 18 -1 2 3 -6 7 -8 0
16 17 18 -1 2 3 -6 -7 8 19 0
16 17 18 -1 2 3 -6 -7 -8 0
16 17 18 -1 2 -3 6 7 8 20 0
16 17 18 -1 2 -3 6 7 -8 0
16 17 18 -1 2 -3 6 -7 8 0
16 17 18 -1 2 -3 6 -7 -8 0
16 17 18 -1 2 -3 -6 7 8 0
16 17 18 -1 2 -3 -6 7 -8 0
16 17 18 -1 2 -3 -6 -7 8 0
16 17 18 -1 2 -3 -6 -7 -8 0
16 17 18 -1 -2 3 6 7 8 0
16 17 18 -1 -2 3 6 7 -8 19 0
16 17 18 -1 -2 3 6 -7 8 0
16 17 18 -1 -2 3 6 -7 -8 19 0
16 17 18 -1 -2 3 -6 7 8 0
16 17 18 -1 -2 3 -6 7 -8 0
16 17 18 -1 -2 3 -6 -7 8 0
16 17 18 -1 -2 3 -6 -7 -8 0
16 17 18 -1 -2 -3 6 7 8 0
16 17 18 -1 -2 -3 6 7 -8 0
16 17 18 -1 -2 -3 6 -7 8 0
16 17 18 -1 -2 -3 6 -7 -8 19 0
16 17 18 -1 -2 -3 -6 7 8 0
16 17 18 -1 -2 -3 -6 7 -8 0
16 17 18 -1 -2 -3 -6 -7 8 19 0
16 17 18 -1 -2 -3 -6 -7 -8 0
16 17 -18 1 2 3 6 7 8 0
16 17 -18 1 2 3 6 7 -8 19 0
16 17 -18 1 2 3 6 -7 8 0
16 17 -18 1 2 3 6 -7 -8 0
16 17 -18 1 2 3 -6 7 8 19 0
16 17 -18 1 2 3 -6 7 -8 19 0
16 17 -18 1 2 3 -6 -7 8 0
16 17 -18 1 2 3 -6 -7 -8 0
16 17 -18 1 2 -3 6 7 8 0
16 17 -18 1 2 -3 6 7 -8 20 0
16 17 -18 1 2 -3 6 -7 8 20 0
16 17 -18 1 2 -3 6 -7 -8 22 0
16 17 -18 1 2 -3 -6 7 8 0
16 17 -18 1 2 -3 -6 7 -8 19 0
16 17 -18 1 2 -3 -6 -7 8 0
16 17 -18 1 2 -3 -6 -7 -8 0
16 17 -18 1 -2 3 6 7 8 0
16 17 -18 1 -2 3 6 7 -8 20 0
16 17 -18 1 -2 3 6 -7 8 22 0
16 17 -18 1 -2 3 6 -7 -8 0
16 17 -18 1 -2 3 -6 7 8 0
16 17 -18 1 -2 3 -6 7 -8 0
16 17 -18 1 -2 3 -6 -7 8 0
16 17 -18 1 -2 3 -6 -7 -8 19 0
16 17 -18 1 -2 -3 6 7 8 0
16 17 -18 1 -2 -3 6 7 -8 19 0
16 17 -18 1 -2 -3 6 -7 8 0
16 17 -18 1 -2 -3 6 -7 -8 0
16 17 -18 1 -2 -3 -6 7 8 0
16 17 -18 1 -2 -3 -6 7 -8 0
16 17 -18 1 -2 -3 -6 -7 8 0
16 17 -18 1 -2 -3 -6 -7 -8 0
16 17 -18 -1 2 3 6 7 8 0
16 17 -18 -1 2 3 6 7 -8 20 0
16 17 -18 -1 2 3 6 -7 8 22 0
16 17 -18 -1 2 3 6 -7 -8 0
16 17 -18 -1 2 3 -6 7 8 0
16 17 -18 -1 2 3 -6 7 -8 0
16 17 -18 -1 2 3 -6 -7 8 19 0
16 17 -18 -1 2 3 -6 -7 -8 0
16 17 -18 -1 2 -3 6 7 8 0
16 17 -18 -1 2 -3 6 7 -8 21 0
16 17 -18 -1 2 -3 6 -7 8 0
16 17 -18 -1 2 -3 6 -7 -8 0
16 17 -18 -1 2 -3 -6 7 8 0
16 17 -18 -1 2 -3 -6 7 -8 0
16 17 -18 -1 2 -3 -6 -7 8 0
16 17 -18 -1 2 -3 -6 -7 -8 0
16 17 -18 -1 -2 3 6 7 8 0
16 17 -18 -1 -2 3 6 7 -8 19 0
16 17 -18 -1 -2 3 6 -7 8 0
16 17 -18 -1 -2 3 6 -7 -8 19 0
16 17 -18 -1 -2 3 -6 7 8 0
16 17 -18 -1 -2 3 -6 7 -8 0
16 17 -18 -1 -2 3 -6 -7 8 0
16 17 -18 -1 -2 3 -6 -7 -8 0
16 17 -18 -1 -2 -3 6 7 8 22 0
16 17 -18 -1 -2 -3 6 7 -8 0
16 17 -18 -1 -2 -3 6 -7 8 0
16 17 -18 -1 -2 -3 6 -7 -8 19 0
16 17 -18 -1 -2 -3 -6 7 8 0
16 17 -18 -1 -2 -3 -6 7 -8 0
16 17 -18 -1 -2 -3 -6 -7 8 19 0
16 17 -18 -1 -2 -3 -6 -7 -8 0
16 -17 18 1 2 3 6 7 8 0
16 -17 18 1 2 3 6 7 -8 19 0
16 -17 18 1 2 3 6 -7 8 0
16 -17 18 1 2 3 6 -7 -8 22 0
16 -17 18 1 2 3 -6 7 8 19 0
16 -17 18 1 2 3 -6 7 -8 19 0
16 -17 18 1 2 3 -6 -7 8 22 0
16 -17 18 1 2 3 -6 -7 -8 0
16 -17 18 1 2 -3 6 7 8 0
16 -17 18 1 2 -3 6 7 -8 0
16 -17 18 1 2 -3 6 -7 8 0
16 -17 18 1 2 -3 6 -7 -8 22 0
16 -17 18 1 2 -3 -6 7 8 22 0
16 -17 18 1 2 -3 -6 7 -8 19 0
16 -17 18 1 2 -3 -6 -7 8 0
16 -17 18 1 2 -3 -6 -7 -8 0
16 -17 18 1 -2 3 6 7 8 0
16 -17 18 1 -2 3 6 7 -8 0
16 -17 18 1 -2 3 6 -7 8 22 0
16 -17 18 1 -2 3 6 -7 -8 0
16 -17 18 1 -2 3 -6 7 8 0
16 -17 18 1 -2 3 -6 7 -8 0
16 -17 18 1 -2 3 -6 -7 8 0
16 -17 18 1 -2 3 -6 -7 -8 19 0
16 -17 18 1 -2 -3 6 7 8 0
16 -17 18 1 -2 -3 6 7 -8 19 0
16 -17 18 1 -2 -3 6 -7 8 20 0
16 -17 18 1 -2 -3 6 -7 -8 0
16 -17 18 1 -2 -3 -6 7 8 0
16 -17 18 1 -2 -3 -6 7 -8 0
16 -17 18 1 -2 -3 -6 -7 8 0
16 -17 18 1 -2 -3 -6 -7 -8 0
16 -17 18 -1 2 3 6 7 8 0
16 -17 18 -1 2 3 6 7 -8 0
16 -17 18 -1 2 3 6 -7 8 22 0
16 -17 18 -1 2 3 6 -7 -8 21 0
16 -17 18 -1 2 3 -6 7 8 0
16 -17 18 -1 2 3 -6 7 -8 0
16 -17 18 -1 2 3 -6 -7 8 19 0
16 -17 18 -1 2 3 -6 -7 -8 0
16 -17 18 -1 2 -3 6 7 8 0
16 -17 18 -1 2 -3 6 7 -8 21 0
16 -17 18 -1 2 -3 6 -7 8 20 0
16 -17 18 -1 2 -3 6 -7 -8 0
16 -17 18 -1 2 -3 -6 7 8 0
16 -17 18 -1 2 -3 -6 7 -8 0
16 -17 18 -1 2 -3 -6 -7 8 0
16 -17 18 -1 2 -3 -6 -7 -8 0
16 -17 18 -1 -2 3 6 7 8 20 0
16 -17 18 -1 -2 3 6 7 -8 19 0
16 -17 18 -1 -2 3 6 -7 8 22 0
16 -17 18 -1 -2 3 6 -7 -8 19 0
16 -17 18 -1 -2 3 -6 7 8 0
16 -17 18 -1 -2 3 -6 7 -8 0
16 -17 18 -1 -2 3 -6 -7 8 0
16 -17 18 -1 -2 3 -6 -7 -8 0
16 -17 18 -1 -2 -3 6 7 8 0
16 -17 18 -1 -2 -3 6 7 -8 0
16 -17 18 -1 -2 -3 6 -7 8 0
16 -17 18 -1 -2 -3 6 -7 -8 19 0
16 -17 18 -1 -2 -3 -6 7 8 0
16 -17 18 -1 -2 -3 -6 7 -8 0
16 -17 18 -1 -2 -3 -6 -7 8 19 0
16 -17 18 -1 -2 -3 -6 -7 -8 0
16 -17 -18 1 2 3 6 7 8 0
16 -17 -18 1 2 3 6 7 -8 19 0
16 -17 -18 1 2 3 6 -7 8 0
16 -17 -18 1 2 3 6 -7 -8 0
16 -17 -18 1 2 3 -6 7 8 19 0
16 -17 -18 1 2 3 -6 7 -8 19 0
16 -17 -18 1 2 3 -6 -7 8 22 0
16 -17 -18 1 2 3 -6 -7 -8 24 0
16 -17 -18 1 2 -3 6 7 8 0
16 -17 -18 1 2 -3 6 7 -8 0
16 -17 -18 1 2 -3 6 -7 8 0
16 -17 -18 1 2 -3 6 -7 -8 0
16 -17 -18 1 2 -3 -6 7 8 0
16 -17 -18 1 2 -3 -6 7 -8 19 0
16 -17 -18 1 2 -3 -6 -7 8 0
16 -17 -18 1 2 -3 -6 -7 -8 0
16 -17 -18 1 -2 3 6 7 8 0
16 -17 -18 1 -2 3 6 7 -8 0
16 -17 -18 1 -2 3 6 -7 8 0
16 -17 -18 1 -2 3 6 -7 -8 0
16 -17 -18 1 -2 3 -6 7 8 25 0
16 -17 -18 1 -2 3 -6 7 -8 0
16 -17 -18 1 -2 3 -6 -7 8 0
16 -17 -18 1 -2 3 -6 -7 -8 19 0
16 -17 -18 1 -2 -3 6 7 8 0
16 -17 -18 1 -2 -3 6 7 -8 19 0
16 -17 -18 1 -2 -3 6 -7 8 0
16 -17 -18 1 -2 -3 6 -7 -8 22 0
16 -17 -18 1 -2 -3 -6 7 8 0
16 -17 -18 1 -2 -3 -6 7 -8 0
16 -17 -18 1 -2 -3 -6 -7 8 0
16 -17 -18 1 -2 -3 -6 -7 -8 0
16 -17 -18 -1 2 3 6 7 8 0
16 -17 -18 -1 2 3 6 7 -8 0
16 -17 -18 -1 2 3 6 -7 8 0
16 -17 -18 -1 2 3 6 -7 -8 21 0
16 -17 -18 -1 2 3 -6 7 8 0
16 -17 -18 -1 2 3 -6 7 -8 0
16 -17 -18 -1 2 3 -6 -7 8 19 0
16 -17 -18 -1 2 3 -6 -7 -8 0
16 -17 -18 -1 2 -3 6 7 8 0
16 -17 -18 -1 2 -3 6 7 -8 21 0
16 -17 -18 -1 2 -3 6 -7 8 0
16 -17 -18 -1 2 -3 6 -7 -8 22 0
16 -17 -18 -1 2 -3 -6 7 8 0
16 -17 -18 -1 2 -3 -6 7 -8 0
16 -17 -18 -1 2 -3 -6 -7 8 0
16 -17 -18 -1 2 -3 -6 -7 -8 0
16 -17 -18 -1 -2 3 6 7 8 0
16 -17 -18 -1 -2 3 6 7 -8 19 0
16 -17 -18 -1 -2 3 6 -7 8 22 0
16 -17 -18 -1 -2 3 6 -7 -8 19 0
16 -17 -18 -1 -2 3 -6 7 8 0
16 -17 -18 -1 -2 3 -6 7 -8 0
16 -17 -18 -1 -2 3 -6 -7 8 0
16 -17 -18 -1 -2 3 -6 -7 -8 0
16 -17 -18 -1 -2 -3 6 7 8 22 0
16 -17 -18 -1 -2 -3 6 7 -8 25 0
16 -17 -18 -1 -2 -3 6 -7 8 0
16 -17 -18 -1 -2 -3 6 -7 -8 19 0
16 -17 -18 -1 -2 -3 -6 7 8 0
16 -17 -18 -1 -2 -3 -6 7 -8 0
16 -17 -18 -1 -2 -3 -6 -7 8 19 0
16 -17 -18 -1 -2 -3 -6 -7 -8 0
-16 17 18 1 2 3 6 7 8 0
-16 17 18 1 2 3 6 7 -8 19 0
-16 17 18 1 2 3 6 -7 8 0
-16 17 18 1 2 3 6 -7 -8 0
-16 17 18 1 2 3 -6 7 8 19 0
-16 17 18 1 2 3 -6 7 -8 19 0
-16 17 18 1 2 3 -6 -7 8 0
-16 17 18 1 2 3 -6 -7 -8 24 0
-16 17 18 1 2 -3 6 7 8 0
-16 17 18 1 2 -3 6 7 -8 0
-16 17 18 1 2 -3 6 -7 8 0
-16 17 18 1 2 -3 6 -7 -8 0
-16 17 18 1 2 -3 -6 7 8 22 0
-16 17 18 1 2 -3 -6 7 -8 19 0
-16 17 18 1 2 -3 -6 -7 8 20 0
-16 17 18 1 2 -3 -6 -7 -8 0
-16 17 18 1 -2 3 6 7 8 0
-16 17 18 1 -2 3 6 7 -8 0
-16 17 18 1 -2 3 6 -7 8 0
-16 17 18 1 -2 3 6 -7 -8 20 0
-16 17 18 1 -2 3 -6 7 8 0
-16 17 18 1 -2 3 -6 7 -8 20 0
-16 17 18 1 -2 3 -6 -7 8 0
-16 17 18 1 -2 3 -6 -7 -8 19 0
-16 17 18 1 -2 -3 6 7 8 0
-16 17 18 1 -2 -3 6 7 -8 19 0
-16 17 18 1 -2 -3 6 -7 8 0
-16 17 18 1 -2 -3 6 -7 -8 22 0
-16 17 18 1 -2 -3 -6 7 8 0
-16 17 18 1 -2 -3 -6 7 -8 21 0
-16 17 18 1 -2 -3 -6 -7 8 0
-16 17 18 1 -2 -3 -6 -7 -8 0
-16 17 18 -1 2 3 6 7 8 0
-16 17 18 -1 2 3 6 7 -8 0
-16 17 18 -1 2 3 6 -7 8 0
-16 17 18 -1 2 3 6 -7 -8 0
-16 17 18 -1 2 3 -6 7 8 0
-16 17 18 -1 2 3 -6 7 -8 20 0
-16 17 18 -1 2 3 -6 -7 8 19 0
-16 17 18 -1 2 3 -6 -7 -8 0
-16 17 18 -1 2 -3 6 7 8 0
-16 17 18 -1 2 -3 6 7 -8 0
-16 17 18 -1 2 -3 6 -7 8 0
-16 17 18 -1 2 -3 6 -7 -8 22 0
-16 17 18 -1 2 -3 -6 7 8 22 0
-16 17 18 -1 2 -3 -6 7 -8 0
-16 17 18 -1 2 -3 -6 -7 8 0
-16 17 18 -1 2 -3 -6 -7 -8 0
-16 17 18 -1 -2 3 6 7 8 0
-16 17 18 -1 -2 3 6 7 -8 19 0
-16 17 18 -1 -2 3 6 -7 8 0
-16 17 18 -1 -2 3 6 -7 -8 19 0
-16 17 18 -1 -2 3 -6 7 8 0
-16 17 18 -1 -2 3 -6 7 -8 0
-16 17 18 -1 -2 3 -6 -7 8 0
-16 17 18 -1 -2 3 -6 -7 -8 0
-16 17 18 -1 -2 -3 6 7 8 0
-16 17 18 -1 -2 -3 6 7 -8 0
-16 17 18 -1 -2 -3 6 -7 8 20 0
-16 17 18 -1 -2 -3 6 -7 -8 19 0
-16 17 18 -1 -2 -3 -6 7 8 0
-16 17 18 -1 -2 -3 -6 7 -8 0
-16 17 18 -1 -2 -3 -6 -7 8 19 0
-16 17 18 -1 -2 -3 -6 -7 -8 0
-16 17 -18 1 2 3 6 7 8 0
-16 17 -18 1 2 3 6 7 -8 19 0
-16 17 -18 1 2 3 6 -7 8 0
-16 17 -18 1 2 3 6 -7 -8 0
-16 17 -18 1 2 3 -6 7 8 19 0
-16 17 -18 1 2 3 -6 7 -8 19 0
-16 17 -18 1 2 3 -6 -7 8 0
-16 17 -18 1 2 3 -6 -7 -8 26 0
-16 17 -18 1 2 -3 6 7 8 0
-16 17 -18 1 2 -3 6 7 -8 0
-16 17 -18 1 2 -3 6 -7 8 0
-16 17 -18 1 2 -3 6 -7 -8 0
-16 17 -18 1 2 -3 -6 7 8 0
-16 17 -18 1 2 -3 -6 7 -8 19 0
-16 17 -18 1 2 -3 -6 -7 8 0
-16 17 -18 1 2 -3 -6 -7 -8 0
-16 17 -18 1 -2 3 6 7 8 0
-16 17 -18 1 -2 3 6 7 -8 0
-16 17 -18 1 -2 3 6 -7 8 0
-16 17 -18 1 -2 3 6 -7 -8 0
-16 17 -18 1 -2 3 -6 7 8 21 0
-16 17 -18 1 -2 3 -6 7 -8 0
-16 17 -18 1 -2 3 -6 -7 8 20 0
-16 17 -18 1 -2 3 -6 -7 -8 19 0
-16 17 -18 1 -2 -3 6 7 8 0
-16 17 -18 1 -2 -3 6 7 -8 19 0
-16 17 -18 1 -2 -3 6 -7 8 0
-16 17 -18 1 -2 -3 6 -7 -8 0
-16 17 -18 1 -2 -3 -6 7 8 20 0
-16 17 -18 1 -2 -3 -6 7 -8 21 0
-16 17 -18 1 -2 -3 -6 -7 8 22 0
-16 17 -18 1 -2 -3 -6 -7 -8 0
-16 17 -18 -1 2 3 6 7 8 0
-16 17 -18 -1 2 3 6 7 -8 0
-16 17 -18 -1 2 3 6 -7 8 0
-16 17 -18 -1 2 3 6 -7 -8 21 0
-16 17 -18 -1 2 3 -6 7 8 20 0
-16 17 -18 -1 2 3 -6 7 -8 0
-16 17 -18 -1 2 3 -6 -7 8 19 0
-16 17 -18 -1 2 3 -6 -7 -8 0
-16 17 -18 -1 2 -3 6 7 8 0
-16 17 -18 -1 2 -3 6 7 -8 0
-16 17 -18 -1 2 -3 6 -7 8 0
-16 17 -18 -1 2 -3 6 -7 -8 0
-16 17 -18 -1 2 -3 -6 7 8 22 0
-16 17 -18 -1 2 -3 -6 7 -8 0
-16 17 -18 -1 2 -3 -6 -7 8 22 0
-16 17 -18 -1 2 -3 -6 -7 -8 0
-16 17 -18 -1 -2 3 6 7 8 0
-16 17 -18 -1 -2 3 6 7 -8 19 0
-16 17 -18 -1 -2 3 6 -7 8 0
-16 17 -18 -1 -2 3 6 -7 -8 19 0
-16 17 -18 -1 -2 3 -6 7 8 20 0
-16 17 -18 -1 -2 3 -6 7 -8 0
-16 17 -18 -1 -2 3 -6 -7 8 0
-16 17 -18 -1 -2 3 -6 -7 -8 0
-16 17 -18 -1 -2 -3 6 7 8 0
-16 17 -18 -1 -2 -3 6 7 -8 0
-16 17 -18 -1 -2 -3 6 -7 8 0
-16 17 -18 -1 -2 -3 6 -7 -8 19 0
-16 17 -18 -1 -2 -3 -6 7 8 0
-16 17 -18 -1 -2 -3 -6 7 -8 0
-16 17 -18 -1 -2 -3 -6 -7 8 19 0
-16 17 -18 -1 -2 -3 -6 -7 -8 0
-16 -17 18 1 2 3 6 7 8 0
-16 -17 18 1 2 3 6 7 -8 19 0
-16 -17 18 1 2 3 6 -7 8 0
-16 -17 18 1 2 3 6 -7 -8 0
-16 -17 18 1 2 3 -6 7 8 19 0
-16 -17 18 1 2 3 -6 7 -8 19 0
-16 -17 18 1 2 3 -6 -7 8 0
-16 -17 18 1 2 3 -6 -7 -8 0
-16 -17 18 1 2 -3 6 7 8 0
-16 -17 18 1 2 -3 6 7 -8 0
-16 -17 18 1 2 -3 6 -7 8 0
-16 -17 18 1 2 -3 6 -7 -8 0
-16 -17 18 1 2 -3 -6 7 8 0
-16 -17 18 1 2 -3 -6 7 -8 19 0
-16 -17 18 1 2 -3 -6 -7 8 0
-16 -17 18 1 2 -3 -6 -7 -8 0
-16 -17 18 1 -2 3 6 7 8 0
-16 -17 18 1 -2 3 6 7 -8 0
-16 -17 18 1 -2 3 6 -7 8 0
-16 -17 18 1 -2 3 6 -7 -8 0
-16 -17 18 1 -2 3 -6 7 8 0
-16 -17 18 1 -2 3 -6 7 -8 0
-16 -17 18 1 -2 3 -6 -7 8 0
-16 -17 18 1 -2 3 -6 -7 -8 19 0
-16 -17 18 1 -2 -3 6 7 8 0
-16 -17 18 1 -2 -3 6 7 -8 19 0
-16 -17 18 1 -2 -3 6 -7 8 0
-16 -17 18 1 -2 -3 6 -7 -8 0
-16 -17 18 1 -2 -3 -6 7 8 0
-16 -17 18 1 -2 -3 -6 7 -8 21 0
-16 -17 18 1 -2 -3 -6 -7 8 22 0
-16 -17 18 1 -2 -3 -6 -7 -8 0
-16 -17 18 -1 2 3 6 7 8 0
-16 -17 18 -1 2 3 6 7 -8 0
-16 -17 18 -1 2 3 6 -7 8 0
-16 -17 18 -1 2 3 6 -7 -8 0
-16 -17 18 -1 2 3 -6 7 8 0
-16 -17 18 -1 2 3 -6 7 -8 0
-16 -17 18 -1 2 3 -6 -7 8 19 0
-16 -17 18 -1 2 3 -6 -7 -8 22 0
-16 -17 18 -1 2 -3 6 7 8 0
-16 -17 18 -1 2 -3 6 7 -8 0
-16 -17 18 -1 2 -3 6 -7 8 0
-16 -17 18 -1 2 -3 6 -7 -8 0
-16 -17 18 -1 2 -3 -6 7 8 0
-16 -17 18 -1 2 -3 -6 7 -8 20 0
-16 -17 18 -1 2 -3 -6 -7 8 22 0
-16 -17 18 -1 2 -3 -6 -7 -8 0
-16 -17 18 -1 -2 3 6 7 8 0
-16 -17 18 -1 -2 3 6 7 -8 19 0
-16 -17 18 -1 -2 3 6 -7 8 0
-16 -17 18 -1 -2 3 6 -7 -8 19 0
-16 -17 18 -1 -2 3 -6 7 8 0
-16 -17 18 -1 -2 3 -6 7 -8 20 0
-16 -17 18 -1 -2 3 -6 -7 8 22 0
-16 -17 18 -1 -2 3 -6 -7 -8 0
-16 -17 18 -1 -2 -3 6 7 8 0
-16 -17 18 -1 -2 -3 6 7 -8 21 0
-16 -17 18 -1 -2 -3 6 -7 8 0
-16 -17 18 -1 -2 -3 6 -7 -8 19 0
-16 -17 18 -1 -2 -3 -6 7 8 0
-16 -17 18 -1 -2 -3 -6 7 -8 22 0
-16 -17 18 -1 -2 -3 -6 -7 8 19 0
-16 -17 18 -1 -2 -3 -6 -7 -8 0
-16 -17 -18 1 2 3 6 7 8 0
-16 -17 -18 1 2 3 6 7 -8 19 0
-16 -17 -18 1 2 3 6 -7 8 0
-16 -17 -18 1 2 3 6 -7 -8 0
-16 -17 -18 1 2 3 -6 7 8 19 0
-16 -17 -18 1 2 3 -6 7 -8 19 0
-16 -17 -18 1 2 3 -6 -7 8 0
-16 -17 -18 1 2 3 -6 -7 -8 0
-16 -17 -18 1 2 -3 6 7 8 0
-16 -17 -18 1 2 -3 6 7 -8 0
-16 -17 -18 1 2 -3 6 -7 8 0
-16 -17 -18 1 2 -3 6 -7 -8 0
-16 -17 -18 1 2 -3 -6 7 8 0
-16 -17 -18 1 2 -3 -6 7 -8 19 0
-16 -17 -18 1 2 -3 -6 -7 8 0
-16 -17 -18 1 2 -3 -6 -7 -8 20 0
-16 -17 -18 1 -2 3 6 7 8 0
-16 -17 -18 1 -2 3 6 7 -8 0
-16 -17 -18 1 -2 3 6 -7 8 0
-16 -17 -18 1 -2 3 6 -7 -8 0
-16 -17 -18 1 -2 3 -6 7 8 0
-16 -17 -18 1 -2 3 -6 7 -8 0
-16 -17 -18 1 -2 3 -6 -7 8 0
-16 -17 -18 1 -2 3 -6 -7 -8 19 0
-16 -17 -18 1 -2 -3 6 7 8 0
-16 -17 -18 1 -2 -3 6 7 -8 19 0
-16 -17 -18 1 -2 -3 6 -7 8 0
-16 -17 -18 1 -2 -3 6 -7 -8 0
-16 -17 -18 1 -2 -3 -6 7 8 0
-16 -17 -18 1 -2 -3 -6 7 -8 0
-16 -17 -18 1 -2 -3 -6 -7 8 0
-16 -17 -18 1 -2 -3 -6 -7 -8 20 0
-16 -17 -18 -1 2 3 6 7 8 0
-16 -17 -18 -1 2 3 6 7 -8 0
-16 -17 -18 -1 2 3 6 -7 8 0
-16 -17 -18 -1 2 3 6 -7 -8 0
-16 -17 -18 -1 2 3 -6 7 8 0
-16 -17 -18 -1 2 3 -6 7 -8 0
-16 -17 -18 -1 2 3 -6 -7 8 19 0
-16 -17 -18 -1 2 3 -6 -7 -8 22 0
-16 -17 -18 -1 2 -3 6 7 8 0
-16 -17 -18 -1 2 -3 6 7 -8 0
-16 -17 -18 -1 2 -3 6 -7 8 0
-16 -17 -18 -1 2 -3 6 -7 -8 0
-16 -17 -18 -1 2 -3 -6 7 8 0
-16 -17 -18 -1 2 -3 -6 7 -8 0
-16 -17 -18 -1 2 -3 -6 -7 8 0
-16 -17 -18 -1 2 -3 -6 -7 -8 20 0
-16 -17 -18 -1 -2 3 6 7 8 0
-16 -17 -18 -1 -2 3 6 7 -8 19 0
-16 -17 -18 -1 -2 3 6 -7 8 0
-16 -17 -18 -1 -2 3 6 -7 -8 19 0
-16 -17 -18 -1 -2 3 -6 7 8 0
-16 -17 -18 -1 -2 3 -6 7 -8 0
-16 -17 -18 -1 -2 3 -6 -7 8 22 0
-16 -17 -18 -1 -2 3 -6 -7 -8 20 0
-16 -17 -18 -1 -2 -3 6 7 8 0
-16 -17 -18 -1 -2 -3 6 7 -8 0
-16 -17 -18 -1 -2 -3 6 -7 8 0
-16 -17 -18 -1 -2 -3 6 -7 -8 19 0
-16 -17 -18 -1 -2 -3 -6 7 8 20 0
-16 -17 -18 -1 -2 -3 -6 7 -8 22 0
-16 -17 -18 -1 -2 -3 -6 -7 8 19 0
-16 -17 -18 -1 -2 -3 -6 -7 -8 20 0
27 28 29 11 12 13 16 17 18 30 0
27 28 29 11 12 13 16 17 -18 31 0
27 28 29 11 12 13 16 -17 18 64 0
27 28 29 11 12 13 16 -17 -18 46 0
27 28 29 11 12 13 -16 17 18 59 0
27 28 29 11 12 13 -16 17 -18 46 0
27 28 29 11 12 13 -16 -17 18 60 0
27 28 29 11 12 13 -16 -17 -18 65 0
27 28 29 11 12 -13 16 17 18 32 0
27 28 29 11 12 -13 16 17 -18 31 0
27 28 29 11 12 -13 16 -17 18 64 0
27 28 29 11 12 -13 16 -17 -18 59 0
27 28 29 11 12 -13 -16 17 18 46 0
27 28 29 11 12 -13 -16 17 -18 31 0
27 28 29 11 12 -13 -16 -17 18 61 0
27 28 29 11 12 -13 -16 -17 -18 45 0
27 28 29 11 -12 13 16 17 18 32 0
27 28 29 11 -12 13 16 17 -18 52 0
27 28 29 11 -12 13 16 -17 18 64 0
27 28 29 11 -12 13 16 -17 -18 64 0
27 28 29 11 -12 13 -16 17 18 60 0
27 28 29 11 -12 13 -16 17 -18 31 0
27 28 29 11 -12 13 -16 -17 18 66 0
27 28 29 11 -12 13 -16 -17 -18 61 0
27 28 29 11 -12 -13 16 17 18 32 0
27 28 29 11 -12 -13 16 17 -18 33 0
27 28 29 11 -12 -13 16 -17 18 31 0
27 28 29 11 -12 -13 16 -17 -18 64 0
27 28 29 11 -12 -13 -16 17 18 50 0
27 28 29 11 -12 -13 -16 17 -18 31 0
27 28 29 11 -12 -13 -16 -17 18 60 0
27 28 29 11 -12 -13 -16 -17 -18 65 0
27 28 29 -11 12 13 16 17 18 30 0
27 28 29 -11 12 13 16 17 -18 32 0
27 28 29 -11 12 13 16 -17 18 47 0
27 28 29 -11 12 13 16 -17 -18 31 0
27 28 29 -11 12 13 -16 17 18 31 0
27 28 29 -11 12 13 -16 17 -18 66 0
27 28 29 -11 12 13 -16 -17 18 51 0
27 28 29 -11 12 13 -16 -17 -18 65 0
27 28 29 -11 12 -13 16 17 18 32 0
27 28 29 -11 12 -13 16 17 -18 62 0
27 28 29 -11 12 -13 16 -17 18 64 0
27 28 29 -11 12 -13 16 -17 -18 66 0
27 28 29 -11 12 -13 -16 17 18 60 0
27 28 29 -11 12 -13 -16 17 -18 53 0
27 28 29 -11 12 -13 -16 -17 18 60 0
27 28 29 -11 12 -13 -16 -17 -18 31 0
27 28 29 -11 -12 13 16 17 18 62 0
27 28 29 -11 -12 13 16 17 -18 50 0
27 28 29 -11 -12 13 16 -17 18 59 0
27 28 29 -11 -12 13 16 -17 -18 66 0
27 28 29 -11 -12 13 -16 17 18 31 0
27 28 29 -11 -12 13 -16 17 -18 61 0
27 28 29 -11 -12 13 -16 -17 18 48 0
27 28 29 -11 -12 13 -16 -17 -18 65 0
27 28 29 -11 -12 -13 16 17 18 64 0
27 28 29 -11 -12 -13 16 17 -18 59 0
27 28 29 -11 -12 -13 16 -17 18 47 0
27 28 29 -11 -12 -13 16 -17 -18 31 0
27 28 29 -11 -12 -13 -16 17 18 56 0
27 28 29 -11 -12 -13 -16 17 -18 45 0
27 28 29 -11 -12 -13 -16 -17 18 61 0
27 28 29 -11 -12 -13 -16 -17 -18 61 0
27 28 -29 11 12 13 16 17 18 62 0
27 28 -29 11 12 13 16 17 -18 31 0
27 28 -29 11 12 13 16 -17 18 32 0
27 28 -29 11 12 13 16 -17 -18 34 0
27 28 -29 11 12 13 -16 17 18 59 0
27 28 -29 11 12 13 -16 17 -18 46 0
27 28 -29 11 12 13 -16 -17 18 60 0
27 28 -29 11 12 13 -16 -17 -18 65 0
27 28 -29 11 12 -13 16 17 18 64 0
27 28 -29 11 12 -13 16 17 -18 31 0
27 28 -29 11 12 -13 16 -17 18 64 0
27 28 -29 11 12 -13 16 -17 -18 59 0
27 28 -29 11 12 -13 -16 17 18 46 0
27 28 -29 11 12 -13 -16 17 -18 31 0
27 28 -29 11 12 -13 -16 -17 18 61 0
27 28 -29 11 12 -13 -16 -17 -18 45 0
27 28 -29 11 -12 13 16 17 18 64 0
27 28 -29 11 -12 13 16 17 -18 35 0
27 28 -29 11 -12 13 16 -17 18 64 0
27 28 -29 11 -12 13 16 -17 -18 64 0
27 28 -29 11 -12 13 -16 17 18 60 0
27 28 -29 11 -12 13 -16 17 -18 31 0
27 28 -29 11 -12 13 -16 -17 18 66 0
27 28 -29 11 -12 13 -16 -17 -18 61 0
27 28 -29 11 -12 -13 16 17 18 64 0
27 28 -29 11 -12 -13 16 17 -18 33 0
27 28 -29 11 -12 -13 16 -17 18 31 0
27 28 -29 11 -12 -13 16 -17 -18 64 0
27 28 -29 11 -12 -13 -16 17 18 50 0
27 28 -29 11 -12 -13 -16 17 -18 31 0
27 28 -29 11 -12 -13 -16 -17 18 60 0
27 28 -29 11 -12 -13 -16 -17 -18 65 0
27 28 -29 -11 12 13 16 17 18 62 0
27 28 -29 -11 12 13 16 17 -18 64 0
27 28 -29 -11 12 13 16 -17 18 47 0
27 28 -29 -11 12 13 16 -17 -18 31 0
27 28 -29 -11 12 13 -16 17 18 31 0
27 28 -29 -11 12 13 -16 17 -18 66 0
27 28 -29 -11 12 13 -16 -17 18 51 0
27 28 -29 -11 12 13 -16 -17 -18 65 0
27 28 -29 -11 12 -13 16 17 18 64 0
27 28 -29 -11 12 -13 16 17 -18 30 0
27 28 -29 -11 12 -13 16 -17 18 64 0
27 28 -29 -11 12 -13 16 -17 -18 66 0
27 28 -29 -11 12 -13 -16 17 18 60 0
27 28 -29 -11 12 -13 -16 17 -18 53 0
27 28 -29 -11 12 -13 -16 -17 18 60 0
27 28 -29 -11 12 -13 -16 -17 -18 31 0
27 28 -29 -11 -12 13 16 17 18 30 0
27 28 -29 -11 -12 13 16 17 -18 50 0
27 28 -29 -11 -12 13 16 -17 18 59 0
27 28 -29 -11 -12 13 16 -17 -18 66 0
27 28 -29 -11 -12 13 -16 17 18 31 0
27 28 -29 -11 -12 13 -16 17 -18 61 0
27 28 -29 -11 -12 13 -16 -17 18 48 0
27 28 -29 -11 -12 13 -16 -17 -18 65 0
27 28 -29 -11 -12 -13 16 17 18 32 0
27 28 -29 -11 -12 -13 16 17 -18 59 0
27 28 -29 -11 -12 -13 16 -17 18 47 0
27 28 -29 -11 -12 -13 16 -17 -18 31 0
27 28 -29 -11 -12 -13 -16 17 18 56 0
27 28 -29 -11 -12 -13 -16 17 -18 45 0
27 28 -29 -11 -12 -13 -16 -17 18 61 0
27 28 -29 -11 -12 -13 -16 -17 -18 61 0
27 -28 29 11 12 13 16 17 18 62 0
27 -28 29 11 12 13 16 17 -18 31 0
27 -28 29 11 12 13 16 -17 18 64 0
27 -28 29 11 12 13 16 -17 -18 36 0
27 -28 29 11 12 13 -16 17 18 37 0
27 -28 29 11 12 13 -16 17 -18 46 0
27 -28 29 11 12 13 -16 -17 18 60 0
27 -28 29 11 12 13 -16 -17 -18 65 0
27 -28 29 11 12 -13 16 17 18 64 0
27 -28 29 11 12 -13 16 17 -18 31 0
27 -28 29 11 12 -13 16 -17 18 38 0
27 -28 29 11 12 -13 16 -17 -18 37 0
27 -28 29 11 12 -13 -16 17 18 36 0
27 -28 29 11 12 -13 -16 17 -18 31 0
27 -28 29 11 12 -13 -16 -17 18 61 0
27 -28 29 11 12 -13 -16 -17 -18 45 0
27 -28 29 11 -12 13 16 17 18 64 0
27 -28 29 11 -12 13 16 17 -18 52 0
27 -28 29 11 -12 13 16 -17 18 38 0
27 -28 29 11 -12 13 16 -17 -18 64 0
27 -28 29 11 -12 13 -16 17 18 60 0
27 -28 29 11 -12 13 -16 17 -18 31 0
27 -28 29 11 -12 13 -16 -17 18 66 0
27 -28 29 11 -12 13 -16 -17 -18 61 0
27 -28 29 11 -12 -13 16 17 18 64 0
27 -28 29 11 -12 -13 16 17 -18 49 0
27 -28 29 11 -12 -13 16 -17 18 31 0
27 -28 29 11 -12 -13 16 -17 -18 64 0
27 -28 29 11 -12 -13 -16 17 18 50 0
27 -28 29 11 -12 -13 -16 17 -18 31 0
27 -28 29 11 -12 -13 -16 -17 18 60 0
27 -28 29 11 -12 -13 -16 -17 -18 65 0
27 -28 29 -11 12 13 16 17 18 62 0
27 -28 29 -11 12 13 16 17 -18 64 0
27 -28 29 -11 12 13 16 -17 18 39 0
27 -28 29 -11 12 13 16 -17 -18 31 0
27 -28 29 -11 12 13 -16 17 18 31 0
27 -28 29 -11 12 13 -16 17 -18 66 0
27 -28 29 -11 12 13 -16 -17 18 51 0
27 -28 29 -11 12 13 -16 -17 -18 65 0
27 -28 29 -11 12 -13 16 17 18 64 0
27 -28 29 -11 12 -13 16 17 -18 62 0
27 -28 29 -11 12 -13 16 -17 18 64 0
27 -28 29 -11 12 -13 16 -17 -18 66 0
27 -28 29 -11 12 -13 -16 17 18 60 0
27 -28 29 -11 12 -13 -16 17 -18 53 0
27 -28 29 -11 12 -13 -16 -17 18 60 0
27 -28 29 -11 12 -13 -16 -17 -18 31 0
27 -28 29 -11 -12 13 16 17 18 62 0
27 -28 29 -11 -12 13 16 17 -18 44 0
27 -28 29 -11 -12 13 16 -17 18 59 0
27 -28 29 -11 -12 13 16 -17 -18 66 0
27 -28 29 -11 -12 13 -16 17 18 31 0
27 -28 29 -11 -12 13 -16 17 -18 61 0
27 -28 29 -11 -12 13 -16 -17 18 48 0
27 -28 29 -11 -12 13 -16 -17 -18 65 0
27 -28 29 -11 -12 -13 16 17 18 64 0
27 -28 29 -11 -12 -13 16 17 -18 37 0
27 -28 29 -11 -12 -13 16 -17 18 47 0
27 -28 29 -11 -12 -13 16 -17 -18 31 0
27 -28 29 -11 -12 -13 -16 17 18 56 0
27 -28 29 -11 -12 -13 -16 17 -18 45 0
27 -28 29 -11 -12 -13 -16 -17 18 61 0
27 -28 29 -11 -12 -13 -16 -17 -18 61 0
27 -28 -29 11 12 13 16 17 18 62 0
27 -28 -29 11 12 13 16 17 -18 31 0
27 -28 -29 11 12 13 16 -17 18 64 0
27 -28 -29 11 12 13 16 -17 -18 46 0
27 -28 -29 11 12 13 -16 17 18 59 0
27 -28 -29 11 12 13 -16 17 -18 36 0
27 -28 -29 11 12 13 -16 -17 18 60 0
27 -28 -29 11 12 13 -16 -17 -18 65 0
27 -28 -29 11 12 -13 16 17 18 64 0
27 -28 -29 11 12 -13 16 17 -18 31 0
27 -28 -29 11 12 -13 16 -17 18 64 0
27 -28 -29 11 12 -13 16 -17 -18 59 0
27 -28 -29 11 12 -13 -16 17 18 34 0
27 -28 -29 11 12 -13 -16 17 -18 31 0
27 -28 -29 11 12 -13 -16 -17 18 61 0
27 -28 -29 11 12 -13 -16 -17 -18 45 0
27 -28 -29 11 -12 13 16 17 18 64 0
27 -28 -29 11 -12 13 16 17 -18 52 0
27 -28 -29 11 -12 13 16 -17 18 64 0
27 -28 -29 11 -12 13 16 -17 -18 38 0
27 -28 -29 11 -12 13 -16 17 18 60 0
27 -28 -29 11 -12 13 -16 17 -18 31 0
27 -28 -29 11 -12 13 -16 -17 18 66 0
27 -28 -29 11 -12 13 -16 -17 -18 61 0
27 -28 -29 11 -12 -13 16 17 18 64 0
27 -28 -29 11 -12 -13 16 17 -18 49 0
27 -28 -29 11 -12 -13 16 -17 18 31 0
27 -28 -29 11 -12 -13 16 -17 -18 38 0
27 -28 -29 11 -12 -13 -16 17 18 50 0
27 -28 -29 11 -12 -13 -16 17 -18 31 0
27 -28 -29 11 -12 -13 -16 -17 18 60 0
27 -28 -29 11 -12 -13 -16 -17 -18 65 0
27 -28 -29 -11 12 13 16 17 18 62 0
27 -28 -29 -11 12 13 16 17 -18 64 0
27 -28 -29 -11 12 13 16 -17 18 39 0
27 -28 -29 -11 12 13 16 -17 -18 31 0
27 -28 -29 -11 12 13 -16 17 18 31 0
27 -28 -29 -11 12 13 -16 17 -18 66 0
27 -28 -29 -11 12 13 -16 -17 18 51 0
27 -28 -29 -11 12 13 -16 -17 -18 65 0
27 -28 -29 -11 12 -13 16 17 18 64 0
27 -28 -29 -11 12 -13 16 17 -18 62 0
27 -28 -29 -11 12 -13 16 -17 18 38 0
27 -28 -29 -11 12 -13 16 -17 -18 66 0
27 -28 -29 -11 12 -13 -16 17 18 60 0
27 -28 -29 -11 12 -13 -16 17 -18 53 0
27 -28 -29 -11 12 -13 -16 -17 18 60 0
27 -28 -29 -11 12 -13 -16 -17 -18 31 0
27 -28 -29 -11 -12 13 16 17 18 62 0
27 -28 -29 -11 -12 13 16 17 -18 50 0
27 -28 -29 -11 -12 13 16 -17 18 37 0
27 -28 -29 -11 -12 13 16 -17 -18 66 0
27 -28 -29 -11 -12 13 -16 17 18 31 0
27 -28 -29 -11 -12 13 -16 17 -18 61 0
27 -28 -29 -11 -12 13 -16 -17 18 48 0
27 -28 -29 -11 -12 13 -16 -17 -18 65 0
27 -28 -29 -11 -12 -13 16 17 18 64 0
27 -28 -29 -11 -12 -13 16 17 -18 59 0
27 -28 -29 -11 -12 -13 16 -17 18 39 0
27 -28 -29 -11 -12 -13 16 -17 -18 31 0
27 -28 -29 -11 -12 -13 -16 17 18 56 0
27 -28 -29 -11 -12 -13 -16 17 -18 45 0
27 -28 -29 -11 -12 -13 -16 -17 18 61 0
27 -28 -29 -11 -12 -13 -16 -17 -18 61 0
-27 28 29 11 12 13 16 17 18 62 0
-27 28 29 11 12 13 16 17 -18 31 0
-27 28 29 11 12 13 16 -17 18 64 0
-27 28 29 11 12 13 16 -17 -18 46 0
-27 28 29 11 12 13 -16 17 18 59 0
-27 28 29 11 12 13 -16 17 -18 34 0
-27 28 29 11 12 13 -16 -17 18 55 0
-27 28 29 11 12 13 -16 -17 -18 65 0
-27 28 29 11 12 -13 16 17 18 64 0
-27 28 29 11 12 -13 16 17 -18 31 0
-27 28 29 11 12 -13 16 -17 18 64 0
-27 28 29 11 12 -13 16 -17 -18 59 0
-27 28 29 11 12 -13 -16 17 18 46 0
-27 28 29 11 12 -13 -16 17 -18 31 0
-27 28 29 11 12 -13 -16 -17 18 61 0
-27 28 29 11 12 -13 -16 -17 -18 45 0
-27 28 29 11 -12 13 16 17 18 64 0
-27 28 29 11 -12 13 16 17 -18 52 0
-27 28 29 11 -12 13 16 -17 18 64 0
-27 28 29 11 -12 13 16 -17 -18 64 0
-27 28 29 11 -12 13 -16 17 18 55 0
-27 28 29 11 -12 13 -16 17 -18 31 0
-27 28 29 11 -12 13 -16 -17 18 66 0
-27 28 29 11 -12 13 -16 -17 -18 61 0
-27 28 29 11 -12 -13 16 17 18 64 0
-27 28 29 11 -12 -13 16 17 -18 49 0
-27 28 29 11 -12 -13 16 -17 18 31 0
-27 28 29 11 -12 -13 16 -17 -18 64 0
-27 28 29 11 -12 -13 -16 17 18 44 0
-27 28 29 11 -12 -13 -16 17 -18 31 0
-27 28 29 11 -12 -13 -16 -17 18 60 0
-27 28 29 11 -12 -13 -16 -17 -18 65 0
-27 28 29 -11 12 13 16 17 18 62 0
-27 28 29 -11 12 13 16 17 -18 64 0
-27 28 29 -11 12 13 16 -17 18 47 0
-27 28 29 -11 12 13 16 -17 -18 31 0
-27 28 29 -11 12 13 -16 17 18 31 0
-27 28 29 -11 12 13 -16 17 -18 66 0
-27 28 29 -11 12 13 -16 -17 18 51 0
-27 28 29 -11 12 13 -16 -17 -18 65 0
-27 28 29 -11 12 -13 16 17 18 64 0
-27 28 29 -11 12 -13 16 17 -18 62 0
-27 28 29 -11 12 -13 16 -17 18 64 0
-27 28 29 -11 12 -13 16 -17 -18 63 0
-27 28 29 -11 12 -13 -16 17 18 60 0
-27 28 29 -11 12 -13 -16 17 -18 53 0
-27 28 29 -11 12 -13 -16 -17 18 60 0
-27 28 29 -11 12 -13 -16 -17 -18 31 0
-27 28 29 -11 -12 13 16 17 18 62 0
-27 28 29 -11 -12 13 16 17 -18 50 0
-27 28 29 -11 -12 13 16 -17 18 59 0
-27 28 29 -11 -12 13 16 -17 -18 63 0
-27 28 29 -11 -12 13 -16 17 18 31 0
-27 28 29 -11 -12 13 -16 17 -18 61 0
-27 28 29 -11 -12 13 -16 -17 18 48 0
-27 28 29 -11 -12 13 -16 -17 -18 65 0
-27 28 29 -11 -12 -13 16 17 18 64 0
-27 28 29 -11 -12 -13 16 17 -18 59 0
-27 28 29 -11 -12 -13 16 -17 18 39 0
-27 28 29 -11 -12 -13 16 -17 -18 31 0
-27 28 29 -11 -12 -13 -16 17 18 56 0
-27 28 29 -11 -12 -13 -16 17 -18 45 0
-27 28 29 -11 -12 -13 -16 -17 18 61 0
-27 28 29 -11 -12 -13 -16 -17 -18 61 0
-27 28 -29 11 12 13 16 17 18 62 0
-27 28 -29 11 12 13 16 17 -18 31 0
-27 28 -29 11 12 13 16 -17 18 64 0
-27 28 -29 11 12 13 16 -17 -18 46 0
-27 28 -29 11 12 13 -16 17 18 59 0
-27 28 -29 11 12 13 -16 17 -18 46 0
-27 28 -29 11 12 13 -16 -17 18 60 0
-27 28 -29 11 12 13 -16 -17 -18 65 0
-27 28 -29 11 12 -13 16 17 18 64 0
-27 28 -29 11 12 -13 16 17 -18 31 0
-27 28 -29 11 12 -13 16 -17 18 64 0
-27 28 -29 11 12 -13 16 -17 -18 59 0
-27 28 -29 11 12 -13 -16 17 18 46 0
-27 28 -29 11 12 -13 -16 17 -18 31 0
-27 28 -29 11 12 -13 -16 -17 18 61 0
-27 28 -29 11 12 -13 -16 -17 -18 45 0
-27 28 -29 11 -12 13 16 17 18 64 0
-27 28 -29 11 -12 13 16 17 -18 52 0
-27 28 -29 11 -12 13 16 -17 18 64 0
-27 28 -29 11 -12 13 16 -17 -18 64 0
-27 28 -29 11 -12 13 -16 17 18 60 0
-27 28 -29 11 -12 13 -16 17 -18 31 0
-27 28 -29 11 -12 13 -16 -17 18 63 0
-27 28 -29 11 -12 13 -16 -17 -18 61 0
-27 28 -29 11 -12 -13 16 17 18 64 0
-27 28 -29 11 -12 -13 16 17 -18 49 0
-27 28 -29 11 -12 -13 16 -17 18 31 0
-27 28 -29 11 -12 -13 16 -17 -18 64 0
-27 28 -29 11 -12 -13 -16 17 18 50 0
-27 28 -29 11 -12 -13 -16 17 -18 31 0
-27 28 -29 11 -12 -13 -16 -17 18 55 0
-27 28 -29 11 -12 -13 -16 -17 -18 65 0
-27 28 -29 -11 12 13 16 17 18 62 0
-27 28 -29 -11 12 13 16 17 -18 64 0
-27 28 -29 -11 12 13 16 -17 18 47 0
-27 28 -29 -11 12 13 16 -17 -18 31 0
-27 28 -29 -11 12 13 -16 17 18 31 0
-27 28 -29 -11 12 13 -16 17 -18 63 0
-27 28 -29 -11 12 13 -16 -17 18 51 0
-27 28 -29 -11 12 13 -16 -17 -18 65 0
-27 28 -29 -11 12 -13 16 17 18 64 0
-27 28 -29 -11 12 -13 16 17 -18 62 0
-27 28 -29 -11 12 -13 16 -17 18 64 0
-27 28 -29 -11 12 -13 16 -17 -18 66 0
-27 28 -29 -11 12 -13 -16 17 18 55 0
-27 28 -29 -11 12 -13 -16 17 -18 57 0
-27 28 -29 -11 12 -13 -16 -17 18 55 0
-27 28 -29 -11 12 -13 -16 -17 -18 31 0
-27 28 -29 -11 -12 13 16 17 18 62 0
-27 28 -29 -11 -12 13 16 17 -18 50 0
-27 28 -29 -11 -12 13 16 -17 18 59 0
-27 28 -29 -11 -12 13 16 -17 -18 66 0
-27 28 -29 -11 -12 13 -16 17 18 31 0
-27 28 -29 -11 -12 13 -16 17 -18 61 0
-27 28 -29 -11 -12 13 -16 -17 18 48 0
-27 28 -29 -11 -12 13 -16 -17 -18 65 0
-27 28 -29 -11 -12 -13 16 17 18 64 0
-27 28 -29 -11 -12 -13 16 17 -18 59 0
-27 28 -29 -11 -12 -13 16 -17 18 47 0
-27 28 -29 -11 -12 -13 16 -17 -18 31 0
-27 28 -29 -11 -12 -13 -16 17 18 40 0
-27 28 -29 -11 -12 -13 -16 17 -18 41 0
-27 28 -29 -11 -12 -13 -16 -17 18 61 0
-27 28 -29 -11 -12 -13 -16 -17 -18 61 0
-27 -28 29 11 12 13 16 17 18 62 0
-27 -28 29 11 12 13 16 17 -18 31 0
-27 -28 29 11 12 13 16 -17 18 64 0
-27 -28 29 11 12 13 16 -17 -18 46 0
-27 -28 29 11 12 13 -16 17 18 59 0
-27 -28 29 11 12 13 -16 17 -18 46 0
-27 -28 29 11 12 13 -16 -17 18 60 0
-27 -28 29 11 12 13 -16 -17 -18 67 0
-27 -28 29 11 12 -13 16 17 18 64 0
-27 -28 29 11 12 -13 16 17 -18 31 0
-27 -28 29 11 12 -13 16 -17 18 64 0
-27 -28 29 11 12 -13 16 -17 -18 59 0
-27 -28 29 11 12 -13 -16 17 18 46 0
-27 -28 29 11 12 -13 -16 17 -18 31 0
-27 -28 29 11 12 -13 -16 -17 18 58 0
-27 -28 29 11 12 -13 -16 -17 -18 41 0
-27 -28 29 11 -12 13 16 17 18 64 0
-27 -28 29 11 -12 13 16 17 -18 52 0
-27 -28 29 11 -12 13 16 -17 18 64 0
-27 -28 29 11 -12 13 16 -17 -18 64 0
-27 -28 29 11 -12 13 -16 17 18 60 0
-27 -28 29 11 -12 13 -16 17 -18 31 0
-27 -28 29 11 -12 13 -16 -17 18 66 0
-27 -28 29 11 -12 13 -16 -17 -18 61 0
-27 -28 29 11 -12 -13 16 17 18 64 0
-27 -28 29 11 -12 -13 16 17 -18 49 0
-27 -28 29 11 -12 -13 16 -17 18 31 0
-27 -28 29 11 -12 -13 16 -17 -18 64 0
-27 -28 29 11 -12 -13 -16 17 18 50 0
-27 -28 29 11 -12 -13 -16 17 -18 31 0
-27 -28 29 11 -12 -13 -16 -17 18 60 0
-27 -28 29 11 -12 -13 -16 -17 -18 65 0
-27 -28 29 -11 12 13 16 17 18 62 0
-27 -28 29 -11 12 13 16 17 -18 64 0
-27 -28 29 -11 12 13 16 -17 18 47 0
-27 -28 29 -11 12 13 16 -17 -18 31 0
-27 -28 29 -11 12 13 -16 17 18 31 0
-27 -28 29 -11 12 13 -16 17 -18 66 0
-27 -28 29 -11 12 13 -16 -17 18 42 0
-27 -28 29 -11 12 13 -16 -17 -18 65 0
-27 -28 29 -11 12 -13 16 17 18 64 0
-27 -28 29 -11 12 -13 16 17 -18 62 0
-27 -28 29 -11 12 -13 16 -17 18 64 0
-27 -28 29 -11 12 -13 16 -17 -18 66 0
-27 -28 29 -11 12 -13 -16 17 18 60 0
-27 -28 29 -11 12 -13 -16 17 -18 53 0
-27 -28 29 -11 12 -13 -16 -17 18 60 0
-27 -28 29 -11 12 -13 -16 -17 -18 31 0
-27 -28 29 -11 -12 13 16 17 18 62 0
-27 -28 29 -11 -12 13 16 17 -18 50 0
-27 -28 29 -11 -12 13 16 -17 18 59 0
-27 -28 29 -11 -12 13 16 -17 -18 66 0
-27 -28 29 -11 -12 13 -16 17 18 31 0
-27 -28 29 -11 -12 13 -16 17 -18 58 0
-27 -28 29 -11 -12 13 -16 -17 18 54 0
-27 -28 29 -11 -12 13 -16 -17 -18 65 0
-27 -28 29 -11 -12 -13 16 17 18 64 0
-27 -28 29 -11 -12 -13 16 17 -18 59 0
-27 -28 29 -11 -12 -13 16 -17 18 47 0
-27 -28 29 -11 -12 -13 16 -17 -18 31 0
-27 -28 29 -11 -12 -13 -16 17 18 40 0
-27 -28 29 -11 -12 -13 -16 17 -18 43 0
-27 -28 29 -11 -12 -13 -16 -17 18 61 0
-27 -28 29 -11 -12 -13 -16 -17 -18 61 0
-27 -28 -29 11 12 13 16 17 18 62 0
-27 -28 -29 11 12 13 16 17 -18 31 0
-27 -28 -29 11 12 13 16 -17 18 64 0
-27 -28 -29 11 12 13 16 -17 -18 46 0
-27 -28 -29 11 12 13 -16 17 18 59 0
-27 -28 -29 11 12 13 -16 17 -18 46 0
-27 -28 -29 11 12 13 -16 -17 18 60 0
-27 -28 -29 11 12 13 -16 -17 -18 65 0
-27 -28 -29 11 12 -13 16 17 18 64 0
-27 -28 -29 11 12 -13 16 17 -18 31 0
-27 -28 -29 11 12 -13 16 -17 18 64 0
-27 -28 -29 11 12 -13 16 -17 -18 59 0
-27 -28 -29 11 12 -13 -16 17 18 46 0
-27 -28 -29 11 12 -13 -16 17 -18 31 0
-27 -28 -29 11 12 -13 -16 -17 18 61 0
-27 -28 -29 11 12 -13 -16 -17 -18 43 0
-27 -28 -29 11 -12 13 16 17 18 64 0
-27 -28 -29 11 -12 13 16 17 -18 52 0
-27 -28 -29 11 -12 13 16 -17 18 64 0
-27 -28 -29 11 -12 13 16 -17 -18 64 0
-27 -28 -29 11 -12 13 -16 17 18 60 0
-27 -28 -29 11 -12 13 -16 17 -18 31 0
-27 -28 -29 11 -12 13 -16 -17 18 66 0
-27 -28 -29 11 -12 13 -16 -17 -18 58 0
-27 -28 -29 11 -12 -13 16 17 18 64 0
-27 -28 -29 11 -12 -13 16 17 -18 49 0
-27 -28 -29 11 -12 -13 16 -17 18 31 0
-27 -28 -29 11 -12 -13 16 -17 -18 64 0
-27 -28 -29 11 -12 -13 -16 17 18 50 0
-27 -28 -29 11 -12 -13 -16 17 -18 31 0
-27 -28 -29 11 -12 -13 -16 -17 18 60 0
-27 -28 -29 11 -12 -13 -16 -17 -18 67 0
-27 -28 -29 -11 12 13 16 17 18 62 0
-27 -28 -29 -11 12 13 16 17 -18 64 0
-27 -28 -29 -11 12 13 16 -17 18 47 0
-27 -28 -29 -11 12 13 16 -17 -18 31 0
-27 -28 -29 -11 12 13 -16 17 18 31 0
-27 -28 -29 -11 12 13 -16 17 -18 66 0
-27 -28 -29 -11 12 13 -16 -17 18 51 0
-27 -28 -29 -11 12 13 -16 -17 -18 67 0
-27 -28 -29 -11 12 -13 16 17 18 64 0
-27 -28 -29 -11 12 -13 16 17 -18 62 0
-27 -28 -29 -11 12 -13 16 -17 18 64 0
-27 -28 -29 -11 12 -13 16 -17 -18 66 0
-27 -28 -29 -11 12 -13 -16 17 18 60 0
-27 -28 -29 -11 12 -13 -16 17 -18 53 0
-27 -28 -29 -11 12 -13 -16 -17 18 60 0
-27 -28 -29 -11 12 -13 -16 -17 -18 31 0
-27 -28 -29 -11 -12 13 16 17 18 62 0
-27 -28 -29 -11 -12 13 16 17 -18 50 0
-27 -28 -29 -11 -12 13 16 -17 18 59 0
-27 -28 -29 -11 -12 13 16 -17 -18 66 0
-27 -28 -29 -11 -12 13 -16 17 18 31 0
-27 -28 -29 -11 -12 13 -16 17 -18 61 0
-27 -28 -29 -11 -12 13 -16 -17 18 54 0
-27 -28 -29 -11 -12 13 -16 -17 -18 67 0
-27 -28 -29 -11 -12 -13 16 17 18 64 0
-27 -28 -29 -11 -12 -13 16 17 -18 59 0
-27 -28 -29 -11 -12 -13 16 -17 18 47 0
-27 -28 -29 -11 -12 -13 16 -17 -18 31 0
-27 -28 -29 -11 -12 -13 -16 17 18 40 0
-27 -28 -29 -11 -12 -13 -16 17 -18 45 0
-27 -28 -29 -11 -12 -13 -16 -17 18 58 0
-27 -28 -29 -11 -12 -13 -16 -17 -18 58 0
